100
50 50
1 35 158
2 35 252
3 35 718
4 35 235
5 35 740
6 35 800
7 35 330
8 35 120
9 35 154
10 35 139
11 34 482
12 34 137
13 34 931
14 34 918
15 34 546
16 34 868
17 34 246
18 34 73
19 33 600
20 33 543
21 33 752
22 32 295
23 32 852
24 32 671
25 31 99
26 30 320
27 30 313
28 30 877
29 30 92
30 30 580
31 30 189
32 29 273
33 29 338
34 29 575
35 29 604
36 29 194
37 28 897
38 28 552
39 26 546
40 26 58
41 26 570
42 26 344
43 26 795
44 26 922
45 25 707
46 25 343
47 25 349
48 25 870
49 24 147
50 24 193
51 24 349
52 24 240
53 24 546
54 24 98
55 23 806
56 23 475
57 23 575
58 23 61
59 23 794
60 23 450
61 22 99
62 22 7
63 22 430
64 22 135
65 22 345
66 21 864
67 21 110
68 21 729
69 21 662
70 21 979
71 20 725
72 18 379
73 18 481
74 18 433
75 18 830
76 17 840
77 17 821
78 17 650
79 16 885
80 16 225
81 15 386
82 14 844
83 14 262
84 14 399
85 13 987
86 13 662
87 13 926
88 13 588
89 12 324
90 12 828
91 11 946
92 11 749
93 11 108
94 11 899
95 11 694
96 10 428
97 10 415
98 10 136
99 10 244
100 10 660
